decision_x1=[0,7];
decision_x2=[0,7];
decision_x3=[0,7];
decision_x4=[0,7];
decision_x5=[0,7];
decision_x6=[0,7];
decision_x7=[0,7];
decision_x8=[0,7];
decision_x9=[0,7];
decision_x10=[0,7];
decision_x11=[0,7];
decision_x12=[0,7];
decision_x13=[0,7];
decision_x14=[0,7];
decision_x15=[0,7];
decision_x16=[0,7];
random_y1=[0,7];
random_y2=[0,7];
random_y3=[0,7];
random_y4=[0,7];
random_y5=[0,7];
random_y6=[0,7];
random_y7=[0,7];
constraint_x2_x1=[
0,0,8.2|
0,1,4.3|
0,2,8|
0,3,3.6|
0,4,7.5|
0,5,1.2|
0,6,6.8|
0,7,9.2|
1,0,0.042|
1,1,3|
1,2,0.5|
1,3,4.7|
1,4,3.8|
1,5,9.7|
1,6,6.1|
1,7,6.7|
2,0,8|
2,1,8.2|
2,2,0.039|
2,3,7|
2,4,4.7|
2,5,6.1|
2,6,0.2|
2,7,6.4|
3,0,3.9|
3,1,4.2|
3,2,4.8|
3,3,7.9|
3,4,4.6|
3,5,9.6|
3,6,5.8|
3,7,4.9|
4,0,7.6|
4,1,7.7|
4,2,3.4|
4,3,2.3|
4,4,2.7|
4,5,1|
4,6,4.8|
4,7,4.4|
5,0,9.5|
5,1,9.4|
5,2,7.9|
5,3,8.2|
5,4,7.5|
5,5,3.6|
5,6,1.8|
5,7,1.3|
6,0,7|
6,1,1.4|
6,2,3.5|
6,3,7.8|
6,4,0.2|
6,5,6.4|
6,6,3.5|
6,7,9.4|
7,0,3.4|
7,1,9.3|
7,2,1.1|
7,3,5.9|
7,4,0.14|
7,5,2.6|
7,6,6.8|
7,7,4|
];
constraint_x3_x2=[
0,0,0.44|
0,1,9.2|
0,2,5.2|
0,3,7.3|
0,4,8.4|
0,5,5.9|
0,6,5.4|
0,7,2.2|
1,0,2.2|
1,1,0.69|
1,2,6|
1,3,6.1|
1,4,6.1|
1,5,6.9|
1,6,10|
1,7,5|
2,0,2|
2,1,7|
2,2,5.1|
2,3,3.1|
2,4,5.6|
2,5,4.8|
2,6,8.5|
2,7,9.4|
3,0,2.7|
3,1,5.8|
3,2,7.5|
3,3,6.1|
3,4,3.3|
3,5,3.6|
3,6,9.5|
3,7,6.8|
4,0,3.8|
4,1,2.3|
4,2,1|
4,3,9.2|
4,4,6|
4,5,5.6|
4,6,4.7|
4,7,1.7|
5,0,0.34|
5,1,9.8|
5,2,1|
5,3,6.2|
5,4,4.4|
5,5,5.1|
5,6,6.4|
5,7,3|
6,0,6|
6,1,8.3|
6,2,4.8|
6,3,5.4|
6,4,1.6|
6,5,5.2|
6,6,9.4|
6,7,3|
7,0,5.7|
7,1,2.2|
7,2,0.8|
7,3,8.2|
7,4,4.3|
7,5,5.4|
7,6,7.2|
7,7,0.065|
];
constraint_x4_x3=[
0,0,8.1|
0,1,3|
0,2,6|
0,3,3.1|
0,4,5.8|
0,5,6.8|
0,6,3.7|
0,7,6.3|
1,0,9.3|
1,1,9.5|
1,2,1.9|
1,3,3.8|
1,4,9.9|
1,5,2.6|
1,6,8.9|
1,7,2.4|
2,0,5.4|
2,1,7.6|
2,2,2.1|
2,3,5.8|
2,4,2.9|
2,5,5.3|
2,6,5.5|
2,7,9.8|
3,0,7.9|
3,1,0.36|
3,2,3.3|
3,3,6.5|
3,4,5.2|
3,5,7|
3,6,4.4|
3,7,8.7|
4,0,6.2|
4,1,2.2|
4,2,9.8|
4,3,1.3|
4,4,1.9|
4,5,4.7|
4,6,5.3|
4,7,2.5|
5,0,5|
5,1,4|
5,2,3.6|
5,3,6.1|
5,4,8.8|
5,5,4.7|
5,6,9.3|
5,7,1.5|
6,0,9.7|
6,1,2.4|
6,2,7|
6,3,2.8|
6,4,2.9|
6,5,6.1|
6,6,9|
6,7,5.3|
7,0,6.8|
7,1,0.73|
7,2,1|
7,3,4.4|
7,4,3|
7,5,2.9|
7,6,8.8|
7,7,7.8|
];
constraint_x5_x1=[
0,0,0.15|
0,1,6.9|
0,2,3.6|
0,3,4.5|
0,4,3.9|
0,5,8.1|
0,6,7.3|
0,7,4.2|
1,0,0.14|
1,1,0.0058|
1,2,3.3|
1,3,6.5|
1,4,0.44|
1,5,7.2|
1,6,1|
1,7,8.8|
2,0,5|
2,1,2.1|
2,2,7.7|
2,3,7.6|
2,4,6.8|
2,5,1.6|
2,6,8.7|
2,7,5.3|
3,0,4.1|
3,1,4.4|
3,2,2.7|
3,3,5.4|
3,4,6.5|
3,5,1.9|
3,6,7.4|
3,7,7|
4,0,3.3|
4,1,9.2|
4,2,0.65|
4,3,1.7|
4,4,7.3|
4,5,9|
4,6,1.7|
4,7,4.8|
5,0,1.2|
5,1,9.6|
5,2,7.3|
5,3,1.1|
5,4,9.4|
5,5,4.1|
5,6,6.4|
5,7,7|
6,0,2.9|
6,1,3.6|
6,2,9.3|
6,3,0.4|
6,4,4.9|
6,5,9.2|
6,6,7.5|
6,7,0.083|
7,0,8.7|
7,1,0.66|
7,2,9.7|
7,3,2.8|
7,4,7.5|
7,5,9.2|
7,6,1.7|
7,7,9.9|
];
constraint_x6_x2=[
0,0,5.9|
0,1,8.3|
0,2,8.5|
0,3,7.1|
0,4,5.4|
0,5,6.7|
0,6,1.3|
0,7,9|
1,0,1.6|
1,1,3.4|
1,2,2.8|
1,3,6.7|
1,4,2.3|
1,5,2.9|
1,6,5.9|
1,7,7.7|
2,0,8.4|
2,1,3.4|
2,2,2|
2,3,9.3|
2,4,4.5|
2,5,6.7|
2,6,1.7|
2,7,2.8|
3,0,1.8|
3,1,2.8|
3,2,3.4|
3,3,9.9|
3,4,4.5|
3,5,1.5|
3,6,5.4|
3,7,5.7|
4,0,9.6|
4,1,3.4|
4,2,9.1|
4,3,9.8|
4,4,4.5|
4,5,1.1|
4,6,4.8|
4,7,1.8|
5,0,9.4|
5,1,7.1|
5,2,6.5|
5,3,2.2|
5,4,3.6|
5,5,4.1|
5,6,1.1|
5,7,3.5|
6,0,0.21|
6,1,5.2|
6,2,0.65|
6,3,3.8|
6,4,6.6|
6,5,10|
6,6,8.2|
6,7,2.4|
7,0,5.6|
7,1,6.1|
7,2,0.31|
7,3,2.7|
7,4,3.2|
7,5,8.6|
7,6,3.8|
7,7,3.4|
];
constraint_x6_x5=[
0,0,9.4|
0,1,2.1|
0,2,0.12|
0,3,8|
0,4,1.6|
0,5,5.8|
0,6,3.2|
0,7,1.1|
1,0,6.2|
1,1,9|
1,2,9.8|
1,3,2.2|
1,4,3.5|
1,5,4.3|
1,6,5.7|
1,7,1.6|
2,0,3|
2,1,8.6|
2,2,9.8|
2,3,1.8|
2,4,8.1|
2,5,10|
2,6,2.5|
2,7,9.1|
3,0,8|
3,1,3.9|
3,2,9.4|
3,3,8|
3,4,4.6|
3,5,4.7|
3,6,9.2|
3,7,3.6|
4,0,6.8|
4,1,8.3|
4,2,7.3|
4,3,4.9|
4,4,4.3|
4,5,2.4|
4,6,7.9|
4,7,1.1|
5,0,3.9|
5,1,8.5|
5,2,7.6|
5,3,1.8|
5,4,4.4|
5,5,7.5|
5,6,4.7|
5,7,1.3|
6,0,0.52|
6,1,8.4|
6,2,6|
6,3,9.2|
6,4,0.021|
6,5,0.85|
6,6,4.1|
6,7,4.5|
7,0,9.2|
7,1,9|
7,2,6.4|
7,3,6|
7,4,5.2|
7,5,9.4|
7,6,3.7|
7,7,2.1|
];
constraint_x7_x3=[
0,0,5.1|
0,1,4.2|
0,2,6.8|
0,3,3.1|
0,4,5|
0,5,3.3|
0,6,4.3|
0,7,8.2|
1,0,3|
1,1,2.6|
1,2,4.4|
1,3,4.7|
1,4,8.4|
1,5,9.9|
1,6,1.8|
1,7,0.054|
2,0,0.69|
2,1,5.2|
2,2,0.24|
2,3,3.4|
2,4,1.7|
2,5,5.7|
2,6,4.7|
2,7,6.5|
3,0,7.6|
3,1,1.5|
3,2,4.7|
3,3,4.7|
3,4,2.8|
3,5,1.6|
3,6,2.9|
3,7,4.4|
4,0,1|
4,1,4.7|
4,2,9.1|
4,3,8.8|
4,4,8|
4,5,7.5|
4,6,2.6|
4,7,1.2|
5,0,4.9|
5,1,3.6|
5,2,6.9|
5,3,9.7|
5,4,1.4|
5,5,8.1|
5,6,1.6|
5,7,0.98|
6,0,8|
6,1,2.3|
6,2,8.7|
6,3,3.7|
6,4,0.42|
6,5,1.5|
6,6,10|
6,7,9.8|
7,0,8|
7,1,9.3|
7,2,6.6|
7,3,2.1|
7,4,9.3|
7,5,0.12|
7,6,0.27|
7,7,8|
];
constraint_x7_x6=[
0,0,3.1|
0,1,1.6|
0,2,7|
0,3,8.5|
0,4,8.1|
0,5,0.11|
0,6,6.7|
0,7,4.9|
1,0,6.4|
1,1,4.3|
1,2,4.1|
1,3,1.3|
1,4,0.56|
1,5,7.8|
1,6,6.4|
1,7,0.82|
2,0,2.8|
2,1,3.2|
2,2,6.1|
2,3,0.58|
2,4,8.4|
2,5,3.1|
2,6,9.5|
2,7,3.7|
3,0,6.9|
3,1,8|
3,2,6.1|
3,3,4.3|
3,4,2|
3,5,4.5|
3,6,2.6|
3,7,3.4|
4,0,2.2|
4,1,0.95|
4,2,7.4|
4,3,0.59|
4,4,1.5|
4,5,8.1|
4,6,0.23|
4,7,0.32|
5,0,2.6|
5,1,2.4|
5,2,3.3|
5,3,4.9|
5,4,6.9|
5,5,2.3|
5,6,0.72|
5,7,1.7|
6,0,3.7|
6,1,3.7|
6,2,0.44|
6,3,9.3|
6,4,8.5|
6,5,9.5|
6,6,7.1|
6,7,8.3|
7,0,2.1|
7,1,6.8|
7,2,6.8|
7,3,9.7|
7,4,0.76|
7,5,5.9|
7,6,2|
7,7,7.4|
];
constraint_x8_x4=[
0,0,3.7|
0,1,4.5|
0,2,3.7|
0,3,1.5|
0,4,7.2|
0,5,7.9|
0,6,1.1|
0,7,7.4|
1,0,7.5|
1,1,2.2|
1,2,7.9|
1,3,7.8|
1,4,5.9|
1,5,8.9|
1,6,9.5|
1,7,3.6|
2,0,8.8|
2,1,8.5|
2,2,4|
2,3,8.3|
2,4,5.7|
2,5,6.7|
2,6,2|
2,7,0.011|
3,0,2|
3,1,0.95|
3,2,8.3|
3,3,8.8|
3,4,6.4|
3,5,0.49|
3,6,5.6|
3,7,9.5|
4,0,3.9|
4,1,3.4|
4,2,5.2|
4,3,2.2|
4,4,6.1|
4,5,1.1|
4,6,5.9|
4,7,0.79|
5,0,3.6|
5,1,2.4|
5,2,2.7|
5,3,3.6|
5,4,0.66|
5,5,2.5|
5,6,3.9|
5,7,6.5|
6,0,7.3|
6,1,7.3|
6,2,6.2|
6,3,1.8|
6,4,3.9|
6,5,3.7|
6,6,6.5|
6,7,7.1|
7,0,0.14|
7,1,4.1|
7,2,3.6|
7,3,2.4|
7,4,0.62|
7,5,8.8|
7,6,2.1|
7,7,7.2|
];
constraint_x8_x7=[
0,0,2.4|
0,1,5.2|
0,2,2.6|
0,3,9.4|
0,4,2.5|
0,5,3.7|
0,6,0.86|
0,7,8.1|
1,0,2|
1,1,6.8|
1,2,0.49|
1,3,3.6|
1,4,5.7|
1,5,5.5|
1,6,9.2|
1,7,3.2|
2,0,2.2|
2,1,8.5|
2,2,4.5|
2,3,7|
2,4,2.2|
2,5,4.6|
2,6,6.8|
2,7,2.6|
3,0,4|
3,1,6.9|
3,2,4.9|
3,3,9.3|
3,4,8|
3,5,8.7|
3,6,1.5|
3,7,2.3|
4,0,8.7|
4,1,9.5|
4,2,8.2|
4,3,0.025|
4,4,2.6|
4,5,7.7|
4,6,2.2|
4,7,7.5|
5,0,0.63|
5,1,5.9|
5,2,2.4|
5,3,9.4|
5,4,9.2|
5,5,9.6|
5,6,9.8|
5,7,4.6|
6,0,5.6|
6,1,6.1|
6,2,2.3|
6,3,4.3|
6,4,7.4|
6,5,5.8|
6,6,0.3|
6,7,4.5|
7,0,3.6|
7,1,3.6|
7,2,5.1|
7,3,3.7|
7,4,0.45|
7,5,9.6|
7,6,0.17|
7,7,3.3|
];
constraint_x9_x5=[
0,0,5.3|
0,1,1.4|
0,2,4.9|
0,3,2.3|
0,4,1.9|
0,5,2.3|
0,6,1.9|
0,7,8.9|
1,0,7.2|
1,1,2.4|
1,2,2.4|
1,3,5.3|
1,4,4.1|
1,5,5.1|
1,6,3.8|
1,7,0.63|
2,0,7|
2,1,3|
2,2,6.7|
2,3,4.9|
2,4,6.6|
2,5,0.87|
2,6,10|
2,7,4.2|
3,0,9.3|
3,1,4.2|
3,2,9.3|
3,3,5.8|
3,4,7.3|
3,5,4|
3,6,1.9|
3,7,0.15|
4,0,1.3|
4,1,0.95|
4,2,1.6|
4,3,6.9|
4,4,6.7|
4,5,5.3|
4,6,9.8|
4,7,9.3|
5,0,9.4|
5,1,2.1|
5,2,3|
5,3,7.6|
5,4,3.6|
5,5,3.6|
5,6,5.3|
5,7,9.3|
6,0,4.3|
6,1,5.4|
6,2,9.8|
6,3,5.1|
6,4,6.8|
6,5,7.4|
6,6,5.5|
6,7,7.7|
7,0,1.1|
7,1,7|
7,2,0.22|
7,3,5.9|
7,4,7.2|
7,5,2.5|
7,6,0.013|
7,7,2.2|
];
constraint_x10_x6=[
0,0,4|
0,1,0.97|
0,2,2.9|
0,3,8.4|
0,4,4.1|
0,5,2.9|
0,6,3.3|
0,7,8.1|
1,0,7.1|
1,1,8.5|
1,2,5.8|
1,3,6|
1,4,6.7|
1,5,4.9|
1,6,8.5|
1,7,7.6|
2,0,0.097|
2,1,1.7|
2,2,0.017|
2,3,8.3|
2,4,7.6|
2,5,9|
2,6,1.8|
2,7,0.39|
3,0,4.6|
3,1,4.6|
3,2,1.6|
3,3,0.36|
3,4,9.8|
3,5,3.5|
3,6,3.9|
3,7,5.5|
4,0,9|
4,1,0.12|
4,2,2.7|
4,3,9.8|
4,4,7.7|
4,5,9.4|
4,6,5.5|
4,7,9.2|
5,0,5.9|
5,1,6.3|
5,2,7.8|
5,3,8|
5,4,3.1|
5,5,6.6|
5,6,1.5|
5,7,9.3|
6,0,5.5|
6,1,8.2|
6,2,9.9|
6,3,5.8|
6,4,1.9|
6,5,7.6|
6,6,3.3|
6,7,3.7|
7,0,1.1|
7,1,0.28|
7,2,5.6|
7,3,9.1|
7,4,0.19|
7,5,7.6|
7,6,1.8|
7,7,8.6|
];
constraint_x10_x9=[
0,0,7.1|
0,1,7.7|
0,2,0.62|
0,3,2.1|
0,4,0.33|
0,5,2.9|
0,6,7.1|
0,7,3.8|
1,0,7.4|
1,1,1.3|
1,2,9.1|
1,3,6.1|
1,4,0.41|
1,5,3.3|
1,6,4|
1,7,3.9|
2,0,8.7|
2,1,6.8|
2,2,3.8|
2,3,6.6|
2,4,2.2|
2,5,7.3|
2,6,0.76|
2,7,4.9|
3,0,0.37|
3,1,4.2|
3,2,2.5|
3,3,1.2|
3,4,2.5|
3,5,0.27|
3,6,1.7|
3,7,8.1|
4,0,3.7|
4,1,6|
4,2,7.9|
4,3,2.9|
4,4,1.8|
4,5,6|
4,6,3.4|
4,7,5.2|
5,0,9.1|
5,1,9.8|
5,2,1.2|
5,3,9.9|
5,4,5|
5,5,0.82|
5,6,5.5|
5,7,6.5|
6,0,8.7|
6,1,4.3|
6,2,4.4|
6,3,0.35|
6,4,0.51|
6,5,1.8|
6,6,7.3|
6,7,9.9|
7,0,7.4|
7,1,6.6|
7,2,4.4|
7,3,8.1|
7,4,1.4|
7,5,0.62|
7,6,4.5|
7,7,9.2|
];
constraint_x11_x7=[
0,0,1|
0,1,8.7|
0,2,9.4|
0,3,9.9|
0,4,9.6|
0,5,8.3|
0,6,4.7|
0,7,3.9|
1,0,7.9|
1,1,0.91|
1,2,2.2|
1,3,9.8|
1,4,4.8|
1,5,6|
1,6,9.4|
1,7,9.7|
2,0,9.4|
2,1,6.2|
2,2,4.4|
2,3,0.87|
2,4,6.9|
2,5,9.4|
2,6,7.6|
2,7,6.5|
3,0,3.1|
3,1,1.8|
3,2,8.9|
3,3,1.4|
3,4,1.1|
3,5,2.5|
3,6,1.4|
3,7,2.6|
4,0,4|
4,1,1.7|
4,2,6.5|
4,3,5.2|
4,4,8.7|
4,5,1.2|
4,6,7.1|
4,7,2.7|
5,0,7.5|
5,1,7.4|
5,2,4.3|
5,3,5|
5,4,3.5|
5,5,4.9|
5,6,4.8|
5,7,1.9|
6,0,0.85|
6,1,9.8|
6,2,6.1|
6,3,9.5|
6,4,1.1|
6,5,5.8|
6,6,3.7|
6,7,1.3|
7,0,4.7|
7,1,9.9|
7,2,5.9|
7,3,3.7|
7,4,5.4|
7,5,2.3|
7,6,0.1|
7,7,4|
];
constraint_x11_x10=[
0,0,9.4|
0,1,0.028|
0,2,0.12|
0,3,4.9|
0,4,9.3|
0,5,7.1|
0,6,7.1|
0,7,7.8|
1,0,1.8|
1,1,1.6|
1,2,6.6|
1,3,3.1|
1,4,5.9|
1,5,9.8|
1,6,6.5|
1,7,3.4|
2,0,5.5|
2,1,2|
2,2,3.6|
2,3,1.3|
2,4,6.3|
2,5,1.8|
2,6,5.6|
2,7,7|
3,0,1.3|
3,1,8.8|
3,2,1.7|
3,3,6.3|
3,4,8.7|
3,5,1.8|
3,6,7|
3,7,5.7|
4,0,7.7|
4,1,6.5|
4,2,1.8|
4,3,8.7|
4,4,7.2|
4,5,0.44|
4,6,4.1|
4,7,0.65|
5,0,3.3|
5,1,3.4|
5,2,5.3|
5,3,4|
5,4,7.2|
5,5,5.7|
5,6,6.6|
5,7,0.9|
6,0,6.5|
6,1,3.7|
6,2,0.028|
6,3,3|
6,4,8.9|
6,5,2.4|
6,6,2.6|
6,7,3.7|
7,0,7.4|
7,1,7.8|
7,2,1.1|
7,3,9.6|
7,4,4.6|
7,5,0.68|
7,6,1.9|
7,7,7.5|
];
constraint_x12_x8=[
0,0,5.5|
0,1,1.3|
0,2,9.4|
0,3,6.3|
0,4,8.8|
0,5,5.5|
0,6,9.6|
0,7,8.6|
1,0,8.7|
1,1,5.9|
1,2,9.7|
1,3,4.4|
1,4,1.8|
1,5,3.9|
1,6,1.5|
1,7,3.2|
2,0,1.9|
2,1,4.1|
2,2,2.5|
2,3,3.2|
2,4,7.7|
2,5,1.8|
2,6,0.62|
2,7,6.1|
3,0,9.3|
3,1,9.6|
3,2,6.7|
3,3,9.4|
3,4,6.2|
3,5,6.9|
3,6,9.9|
3,7,0.73|
4,0,3.6|
4,1,8.1|
4,2,9.2|
4,3,4.5|
4,4,7.4|
4,5,2.5|
4,6,8.8|
4,7,4.1|
5,0,3.8|
5,1,5.4|
5,2,7.6|
5,3,6|
5,4,2.4|
5,5,8|
5,6,4.3|
5,7,7.9|
6,0,0.25|
6,1,2.9|
6,2,9.1|
6,3,9|
6,4,1.6|
6,5,2.1|
6,6,0.96|
6,7,8|
7,0,3.7|
7,1,0.34|
7,2,9.2|
7,3,4.5|
7,4,6|
7,5,4.1|
7,6,8.2|
7,7,3.4|
];
constraint_x12_x11=[
0,0,0.28|
0,1,5.5|
0,2,0.43|
0,3,8|
0,4,6.7|
0,5,7.1|
0,6,1.2|
0,7,4|
1,0,8.2|
1,1,3.3|
1,2,5.5|
1,3,3|
1,4,5.6|
1,5,1.4|
1,6,6.8|
1,7,0.61|
2,0,1.1|
2,1,2.9|
2,2,4.9|
2,3,1.8|
2,4,8.8|
2,5,2.5|
2,6,7|
2,7,7.3|
3,0,5.4|
3,1,4.2|
3,2,5.2|
3,3,6.8|
3,4,3.9|
3,5,9.9|
3,6,1.9|
3,7,8.3|
4,0,4|
4,1,5.7|
4,2,7.9|
4,3,8.6|
4,4,7.8|
4,5,1.4|
4,6,3.6|
4,7,3.5|
5,0,6.6|
5,1,0.063|
5,2,7.3|
5,3,4.4|
5,4,3.5|
5,5,6.8|
5,6,4.7|
5,7,2|
6,0,9.3|
6,1,2.1|
6,2,4.8|
6,3,4.7|
6,4,7.1|
6,5,5|
6,6,5.5|
6,7,9|
7,0,1.6|
7,1,3.4|
7,2,4.3|
7,3,8|
7,4,1.6|
7,5,1.2|
7,6,8.9|
7,7,9.4|
];
constraint_x13_x9=[
0,0,6.3|
0,1,5.9|
0,2,5.7|
0,3,1.8|
0,4,2.7|
0,5,7.5|
0,6,7.8|
0,7,7.4|
1,0,2.4|
1,1,0.2|
1,2,4.2|
1,3,9|
1,4,9|
1,5,3.6|
1,6,4.4|
1,7,1.6|
2,0,7|
2,1,6.5|
2,2,3.6|
2,3,9.1|
2,4,6.4|
2,5,3.9|
2,6,0.97|
2,7,3.3|
3,0,4.2|
3,1,1.6|
3,2,5.4|
3,3,3.4|
3,4,1.1|
3,5,7.8|
3,6,7.5|
3,7,2|
4,0,9.4|
4,1,8.9|
4,2,1.1|
4,3,7.1|
4,4,5.5|
4,5,8.6|
4,6,8.6|
4,7,7.7|
5,0,0.052|
5,1,7.3|
5,2,2.4|
5,3,2.5|
5,4,2.3|
5,5,6.9|
5,6,3.5|
5,7,2.3|
6,0,8.9|
6,1,1.9|
6,2,2|
6,3,8.3|
6,4,6|
6,5,1.8|
6,6,0.77|
6,7,0.97|
7,0,0.097|
7,1,9.5|
7,2,2.1|
7,3,4.6|
7,4,4.2|
7,5,6|
7,6,5.1|
7,7,3|
];
constraint_x14_x10=[
0,0,9.5|
0,1,2.4|
0,2,0.24|
0,3,3.5|
0,4,3.9|
0,5,1.5|
0,6,1.2|
0,7,5.3|
1,0,9.2|
1,1,7.3|
1,2,7.2|
1,3,0.17|
1,4,5|
1,5,2.5|
1,6,2.4|
1,7,3.8|
2,0,3.1|
2,1,6.9|
2,2,1.2|
2,3,8.1|
2,4,7.6|
2,5,8.9|
2,6,9.1|
2,7,4.5|
3,0,4.3|
3,1,2.1|
3,2,4.6|
3,3,0.43|
3,4,5.6|
3,5,4.2|
3,6,4.1|
3,7,8.1|
4,0,3.6|
4,1,3.9|
4,2,2.4|
4,3,6.8|
4,4,2.6|
4,5,9.3|
4,6,3.3|
4,7,9.2|
5,0,7.3|
5,1,8.8|
5,2,9|
5,3,4.1|
5,4,8.1|
5,5,7.3|
5,6,3.5|
5,7,4.7|
6,0,5.2|
6,1,8.1|
6,2,1.7|
6,3,1.9|
6,4,5.8|
6,5,9|
6,6,8.6|
6,7,0.73|
7,0,8.4|
7,1,4.4|
7,2,8.4|
7,3,8.4|
7,4,3.1|
7,5,6.4|
7,6,0.22|
7,7,4.3|
];
constraint_x15_x11=[
0,0,1.3|
0,1,2.7|
0,2,9.4|
0,3,8.1|
0,4,4.4|
0,5,8.7|
0,6,4.9|
0,7,6.1|
1,0,6.3|
1,1,2.9|
1,2,0.67|
1,3,2.7|
1,4,6.8|
1,5,8.8|
1,6,2.9|
1,7,8.2|
2,0,3.1|
2,1,0.92|
2,2,0.9|
2,3,6.5|
2,4,1.5|
2,5,8|
2,6,4|
2,7,5.6|
3,0,6.2|
3,1,2.7|
3,2,2.4|
3,3,6.7|
3,4,5.2|
3,5,1.2|
3,6,0.31|
3,7,3|
4,0,6.9|
4,1,2.9|
4,2,1.3|
4,3,8.3|
4,4,5.8|
4,5,0.22|
4,6,6.9|
4,7,1|
5,0,0.44|
5,1,4.8|
5,2,9.7|
5,3,9.6|
5,4,1.7|
5,5,2.3|
5,6,3.2|
5,7,2.3|
6,0,1.7|
6,1,7.6|
6,2,2.7|
6,3,9.9|
6,4,0.3|
6,5,4.7|
6,6,7.8|
6,7,1.3|
7,0,4.8|
7,1,8.2|
7,2,5.1|
7,3,7.7|
7,4,7.3|
7,5,7.3|
7,6,6.1|
7,7,3.6|
];
constraint_x16_x12=[
0,0,3|
0,1,5.2|
0,2,1.6|
0,3,5.5|
0,4,4.9|
0,5,4.2|
0,6,9.7|
0,7,7.8|
1,0,8|
1,1,7.9|
1,2,9.1|
1,3,3.6|
1,4,2.9|
1,5,7.1|
1,6,3.7|
1,7,2.2|
2,0,0.88|
2,1,2.5|
2,2,0.56|
2,3,3.4|
2,4,1.5|
2,5,8.4|
2,6,5.8|
2,7,6.4|
3,0,4|
3,1,6.4|
3,2,5.7|
3,3,3.5|
3,4,6.1|
3,5,6.9|
3,6,1.6|
3,7,2.1|
4,0,9.8|
4,1,2|
4,2,4.7|
4,3,1.5|
4,4,7.6|
4,5,6.3|
4,6,1.3|
4,7,7.6|
5,0,2|
5,1,0.85|
5,2,6.1|
5,3,3.2|
5,4,0.75|
5,5,2|
5,6,9.9|
5,7,5.5|
6,0,5.1|
6,1,7.5|
6,2,7|
6,3,4.9|
6,4,2.4|
6,5,5.6|
6,6,9.8|
6,7,0.3|
7,0,7.2|
7,1,6.8|
7,2,0.44|
7,3,9.7|
7,4,8.6|
7,5,3.5|
7,6,1.1|
7,7,4.7|
];
constraint_x1_y1=[
0,0,2.4|
0,1,9.5|
0,2,8.2|
0,3,4.3|
0,4,5.8|
0,5,0.35|
0,6,5.1|
0,7,1.4|
1,0,9.1|
1,1,9.2|
1,2,1.2|
1,3,5.9|
1,4,3.1|
1,5,9.9|
1,6,7.2|
1,7,7.9|
2,0,1.5|
2,1,3.9|
2,2,8.5|
2,3,8.6|
2,4,2.8|
2,5,2.9|
2,6,7.2|
2,7,1.7|
3,0,2.5|
3,1,4.8|
3,2,3.9|
3,3,3.4|
3,4,2.1|
3,5,0.92|
3,6,7.9|
3,7,6.1|
4,0,5.1|
4,1,3.5|
4,2,5.9|
4,3,7|
4,4,0.52|
4,5,2.4|
4,6,4.6|
4,7,4.3|
5,0,8.8|
5,1,6|
5,2,7.9|
5,3,3.3|
5,4,7.1|
5,5,8.3|
5,6,2.8|
5,7,8.9|
6,0,0.55|
6,1,3.4|
6,2,3.6|
6,3,1.6|
6,4,2.6|
6,5,5.9|
6,6,2.5|
6,7,0.24|
7,0,0.42|
7,1,8.8|
7,2,6.7|
7,3,3.1|
7,4,1.9|
7,5,7.6|
7,6,7.3|
7,7,1.9|
];
constraint_x2_y2=[
0,0,8.1|
0,1,8.4|
0,2,5.4|
0,3,2.9|
0,4,9|
0,5,9.7|
0,6,5.7|
0,7,8|
1,0,4.2|
1,1,2.8|
1,2,7.8|
1,3,5.1|
1,4,1.7|
1,5,1.6|
1,6,6.1|
1,7,0.078|
2,0,7.2|
2,1,4|
2,2,6.6|
2,3,2.4|
2,4,4.4|
2,5,7.7|
2,6,0.0016|
2,7,9.2|
3,0,6.3|
3,1,3.6|
3,2,0.72|
3,3,4.2|
3,4,9.4|
3,5,5.4|
3,6,0.8|
3,7,3|
4,0,1.1|
4,1,5.9|
4,2,2.5|
4,3,4.3|
4,4,9.6|
4,5,3.9|
4,6,9.4|
4,7,6.8|
5,0,5.7|
5,1,8.3|
5,2,5.7|
5,3,3.5|
5,4,4.9|
5,5,1.9|
5,6,9.4|
5,7,2.4|
6,0,0.014|
6,1,9.1|
6,2,4.2|
6,3,1.6|
6,4,4|
6,5,6.4|
6,6,7.6|
6,7,7|
7,0,8.6|
7,1,1.7|
7,2,3.8|
7,3,7.3|
7,4,4.5|
7,5,5.4|
7,6,9.4|
7,7,0.36|
];
constraint_x3_y3=[
0,0,3.3|
0,1,8.8|
0,2,9.7|
0,3,6.5|
0,4,6.3|
0,5,4.1|
0,6,0.3|
0,7,4|
1,0,2.4|
1,1,7|
1,2,3.6|
1,3,8.5|
1,4,1.2|
1,5,4.7|
1,6,9|
1,7,7.4|
2,0,9.2|
2,1,4.7|
2,2,5.8|
2,3,3.7|
2,4,0.44|
2,5,1.6|
2,6,9.2|
2,7,4.9|
3,0,8|
3,1,7.1|
3,2,6.1|
3,3,9.5|
3,4,0.34|
3,5,5.8|
3,6,9|
3,7,3.1|
4,0,2.6|
4,1,9.6|
4,2,5|
4,3,5.5|
4,4,5.9|
4,5,9|
4,6,9|
4,7,8|
5,0,2|
5,1,7|
5,2,9.9|
5,3,3.9|
5,4,0.76|
5,5,2.5|
5,6,5.3|
5,7,9|
6,0,1.1|
6,1,5.2|
6,2,3.7|
6,3,6.7|
6,4,8.6|
6,5,6.6|
6,6,7.3|
6,7,9.6|
7,0,8.8|
7,1,6.8|
7,2,3.6|
7,3,8.5|
7,4,8.1|
7,5,8.4|
7,6,2.4|
7,7,7.2|
];
constraint_x4_y4=[
0,0,7.3|
0,1,1.8|
0,2,4.5|
0,3,3.1|
0,4,4.5|
0,5,10|
0,6,6.7|
0,7,8|
1,0,3|
1,1,1.6|
1,2,7.8|
1,3,6.3|
1,4,1.5|
1,5,3.4|
1,6,1.1|
1,7,0.13|
2,0,8.1|
2,1,3.2|
2,2,0.58|
2,3,7.3|
2,4,8.8|
2,5,7.7|
2,6,4.2|
2,7,0.64|
3,0,6.2|
3,1,1.3|
3,2,5.6|
3,3,0.53|
3,4,4.7|
3,5,4.5|
3,6,4.3|
3,7,1.6|
4,0,6.5|
4,1,4.2|
4,2,3.6|
4,3,3.4|
4,4,4.7|
4,5,5.8|
4,6,3.3|
4,7,0.3|
5,0,6.4|
5,1,3.8|
5,2,4.1|
5,3,7|
5,4,1.4|
5,5,0.034|
5,6,5.2|
5,7,2.8|
6,0,3.3|
6,1,2.7|
6,2,1.8|
6,3,1.2|
6,4,9.5|
6,5,7.4|
6,6,3.1|
6,7,4.5|
7,0,0.49|
7,1,0.26|
7,2,0.77|
7,3,8.9|
7,4,5.9|
7,5,3.3|
7,6,5.8|
7,7,4.3|
];
constraint_x5_y5=[
0,0,7.5|
0,1,9|
0,2,5.6|
0,3,5.4|
0,4,4.7|
0,5,9.6|
0,6,3.6|
0,7,3.3|
1,0,9.7|
1,1,8.2|
1,2,6.3|
1,3,1.1|
1,4,3.1|
1,5,9.6|
1,6,4|
1,7,0.48|
2,0,7.1|
2,1,6.7|
2,2,2.1|
2,3,5.2|
2,4,0.23|
2,5,9.3|
2,6,8.1|
2,7,7.9|
3,0,6|
3,1,0.48|
3,2,1.9|
3,3,8.3|
3,4,4.3|
3,5,2.7|
3,6,4.6|
3,7,6.4|
4,0,4.7|
4,1,5.1|
4,2,9.4|
4,3,5.2|
4,4,6.9|
4,5,9.8|
4,6,3.4|
4,7,8.1|
5,0,4.5|
5,1,1.4|
5,2,4.3|
5,3,8.1|
5,4,6|
5,5,7.1|
5,6,1.4|
5,7,4.7|
6,0,0.99|
6,1,0.15|
6,2,3.7|
6,3,3.3|
6,4,0.27|
6,5,4.6|
6,6,9.5|
6,7,0.9|
7,0,4|
7,1,7.4|
7,2,2|
7,3,4.2|
7,4,6.3|
7,5,7.2|
7,6,3.2|
7,7,2|
];
constraint_x6_y6=[
0,0,9.6|
0,1,7.5|
0,2,4.3|
0,3,5.8|
0,4,2.9|
0,5,8|
0,6,9.9|
0,7,6.3|
1,0,6.2|
1,1,4.1|
1,2,3.3|
1,3,8.6|
1,4,7.1|
1,5,9.5|
1,6,9.9|
1,7,1.5|
2,0,0.96|
2,1,1.6|
2,2,5.1|
2,3,4.8|
2,4,1.8|
2,5,3.2|
2,6,0.25|
2,7,7.4|
3,0,0.98|
3,1,1.2|
3,2,1.9|
3,3,0.38|
3,4,4.1|
3,5,6.6|
3,6,6.3|
3,7,9.1|
4,0,5.4|
4,1,5.1|
4,2,6.6|
4,3,6.4|
4,4,6.3|
4,5,5.2|
4,6,2.3|
4,7,6.4|
5,0,6.6|
5,1,0.93|
5,2,4.1|
5,3,4.2|
5,4,8.4|
5,5,6.7|
5,6,7.8|
5,7,3.2|
6,0,3|
6,1,8|
6,2,5.7|
6,3,0.14|
6,4,2.1|
6,5,4.5|
6,6,8.5|
6,7,5.7|
7,0,2.3|
7,1,9.1|
7,2,6.1|
7,3,5.2|
7,4,6.8|
7,5,8.9|
7,6,5.8|
7,7,0.95|
];
constraint_x7_y7=[
0,0,7.1|
0,1,1.9|
0,2,5.9|
0,3,8.5|
0,4,4.1|
0,5,3.5|
0,6,7|
0,7,2.8|
1,0,1.1|
1,1,0.51|
1,2,6.5|
1,3,4.2|
1,4,3.9|
1,5,4|
1,6,1.3|
1,7,6.2|
2,0,9.7|
2,1,5|
2,2,2.7|
2,3,8.7|
2,4,9.3|
2,5,7.7|
2,6,6.7|
2,7,5.6|
3,0,5.1|
3,1,3.5|
3,2,8.4|
3,3,4|
3,4,8.5|
3,5,7.5|
3,6,1.1|
3,7,3.7|
4,0,9|
4,1,9|
4,2,1.5|
4,3,0.82|
4,4,1.5|
4,5,8|
4,6,5.4|
4,7,4.9|
5,0,9.3|
5,1,8.5|
5,2,2.3|
5,3,3.4|
5,4,2.3|
5,5,4.1|
5,6,5.2|
5,7,3.5|
6,0,5.5|
6,1,5.9|
6,2,7.2|
6,3,6.8|
6,4,9.6|
6,5,4.3|
6,6,6.3|
6,7,8.3|
7,0,7.6|
7,1,0.3|
7,2,7|
7,3,9.8|
7,4,3.8|
7,5,9.1|
7,6,2.1|
7,7,5.2|
];
initial_distribution_y1=[0.071,0.21,0.13,0.086,0.088,0.18,0.18,0.063];
initial_distribution_y2=[0.19,0.086,0.18,0.18,0.11,0.11,0.076,0.076];
initial_distribution_y3=[0.16,0.03,0.016,0.18,0.13,0.17,0.16,0.16];
initial_distribution_y4=[0.075,0.13,0.16,0.089,0.17,0.19,0.16,0.024];
initial_distribution_y5=[0.15,0.046,0.16,0.15,0.066,0.028,0.25,0.15];
initial_distribution_y6=[0.0044,0.26,0.047,0.19,0.21,0.016,0.1,0.16];
initial_distribution_y7=[0.072,0.13,0.17,0.19,0.011,0.11,0.17,0.14];
transition_y1=[
0.17,0.13,0.084,0.17,0.081,0.16,0.1,0.11|
0.074,0.036,0.16,0.035,0.14,0.12,0.2,0.23|
0.033,0.21,0.05,0.11,0.032,0.2,0.2,0.16|
0.045,0.048,0.13,0.089,0.23,0.039,0.26,0.15|
0.011,0.093,0.18,0.016,0.15,0.19,0.14,0.22|
0.13,0.12,0.048,0.095,0.22,0.2,0.0086,0.18|
0.15,0.13,0.16,0.058,0.14,0.1,0.12,0.14|
0.17,0.0093,0.099,0.17,0.11,0.18,0.21,0.039|
];
transition_y2=[
0.17,0.0033,0.18,0.11,0.046,0.16,0.11,0.22|
0.22,0.13,0.064,0.024,0.013,0.21,0.24,0.11|
0.15,0.097,0.15,0.061,0.01,0.038,0.3,0.19|
0.18,0.018,0.1,0.22,0.16,0.19,0.077,0.059|
0.051,0.073,0.017,0.11,0.31,0.092,0.18,0.16|
0.11,0.09,0.18,0.093,0.15,0.15,0.16,0.084|
0.12,0.18,0.11,0.18,0.2,0.0077,0.17,0.035|
0.16,0.05,0.11,0.054,0.28,0.16,0.11,0.093|
];
transition_y3=[
0.099,0.095,0.075,0.07,0.22,0.019,0.25,0.17|
0.22,0.031,0.27,0.029,0.069,0.099,0.036,0.25|
0.048,0.043,0.13,0.17,0.11,0.13,0.19,0.19|
0.017,0.23,0.11,0.11,0.035,0.12,0.16,0.22|
0.037,0.17,0.029,0.13,0.2,0.17,0.17,0.091|
0.12,0.02,0.092,0.27,0.12,0.036,0.26,0.09|
0.049,0.13,0.18,0.055,0.14,0.12,0.14,0.18|
0.19,0.12,0.14,0.066,0.074,0.086,0.13,0.19|
];
transition_y4=[
0.15,0.13,0.18,0.13,0.069,0.079,0.088,0.18|
0.2,0.077,0.15,0.093,0.024,0.18,0.11,0.17|
0.15,0.03,0.028,0.026,0.27,0.17,0.088,0.25|
0.11,0.2,0.064,0.096,0.2,0.038,0.082,0.21|
0.22,0.19,0.091,0.012,0.16,0.12,0.18,0.026|
0.16,0.16,0.044,0.14,0.035,0.16,0.19,0.1|
0.21,0.24,0.011,0.17,0.036,0.086,0.14,0.11|
0.16,0.24,0.12,0.2,0.042,0.14,0.013,0.089|
];
transition_y5=[
0.0069,0.2,0.062,0.092,0.18,0.11,0.19,0.16|
0.13,0.19,0.062,0.059,0.17,0.18,0.1,0.11|
0.14,0.11,0.17,0.087,0.057,0.17,0.17,0.083|
0.18,0.12,0.18,0.039,0.18,0.086,0.11,0.097|
0.16,0.13,0.092,0.17,0.17,0.11,0.12,0.049|
0.073,0.25,0.23,0.039,0.066,0.16,0.022,0.16|
0.18,0.17,0.042,0.066,0.18,0.1,0.11,0.15|
0.23,0.15,0.18,0.031,0.037,0.12,0.23,0.021|
];
transition_y6=[
0.16,0.07,0.14,0.13,0.13,0.061,0.15,0.16|
0.21,0.074,0.22,0.027,0.069,0.19,0.13,0.078|
0.14,0.1,0.14,0.06,0.13,0.37,0.046,0.016|
0.047,0.17,0.074,0.19,0.24,0.017,0.16,0.11|
0.066,0.15,0.1,0.12,0.22,0.19,0.038,0.11|
0.074,0.16,0.23,0.011,0.045,0.14,0.3,0.047|
0.12,0.14,0.22,0.11,0.024,0.067,0.21,0.11|
0.025,0.22,0.07,0.18,0.2,0.18,0.049,0.074|
];
transition_y7=[
0.18,0.051,0.14,0.21,0.07,0.045,0.0057,0.3|
0.0096,0.039,0.27,0.15,0.11,0.17,0.19,0.061|
0.038,0.22,0.24,0.063,0.083,0.12,0.16,0.069|
0.12,0.1,0.19,0.027,0.22,0.067,0.11,0.16|
0.3,0.068,0.032,0.15,0.011,0.24,0.093,0.11|
0.0055,0.12,0.22,0.12,0.18,0.13,0.074,0.16|
0.21,0.066,0.1,0.12,0.034,0.021,0.17,0.28|
0.013,0.13,0.24,0.23,0.055,0.044,0.11,0.17|
];
